(set-logic ALL)
(declare-const k Int)
(declare-fun s () (_ BitVec k))
(declare-fun t () (_ BitVec k))
(assert (distinct (bvudiv s (bvudiv (_ bvk k) (bvudiv (_ bv0 k) t))) (bvudiv s (bvnot (bvudiv (_ bv0 k) t)))))
(check-sat)
